/*********************************************
 * OPL 12.9.0.0 Data
 * Author: Ася Троян
 * Creation Date: Dec 10, 2020 at 1:23:51 PM
 *********************************************/
 wagons = {1};
 
 shipmentPoint = {1, 2};
 
 startPoint = {1};
 
 startPointStartDateWagon = [ 0];
 pointOfStart = [1];
 
 shippmentStartDate = [ 10, 14];
 shippmentDuration = [ 5, 10]; 
 
  emptyTrainStartDuration = 
 [
 [2, 5]
 ];
 
 emptyTrainShipmentDuration = 
 [
 [10, 1],
 [8, 14],

 ];
 
 